\* Problem: Assemblage de vélos *\


Maximize 
Benefice: 700 C + 300 S

Subject To
TravailHebdo: 0.06 C + 0.05 S <= 60
SurfaceOccupee: 2.5 C + S <= 1500
ProductionCargoMax: C <= 700

Integer 
C
S

End
